clear

echo               both
dimension          ${ndim}
units              si
atom_style   hybrid  bond meso

# create simulation box
include            ${ndim}-vars.lmp

# create fluid particles
include            ${case}/${ndim}-lattice.lmp
#create_atoms       1 region box

mass               1  ${solvent_mass}
mass               2  ${polymer_mass}

write_restart      ${dname}/poly3d.restart

