# create otuput directory
shell              mkdir ${dname}
log                ${dname}/log.lammps
echo               both
variable           ndim equal 2
dimension          ${ndim}
units              si
atom_style         meso
boundary          p p p
include           vars.lmp

# create simulation box
if ${ndim}==2 then &
"variable           pLz    equal  ${dx}" &
"variable           nLz    equal  0" &
"region             box block 0.0 ${Lx}  0.0 ${Ly} ${nLz} ${pLz} units box" &
else &
"region             box block 0.0 ${Lx}  0.0 ${Ly} 0 ${Lz} units box"

# crate one type of the particles
create_box         2 box
if ${ndim}==3 then &
"lattice            sc ${dx} origin 0.5 0.5 0.5" &
else &
"lattice            sq ${dx} origin 0.5 0.5 0.0"
create_atoms       1 region box

variable           y1 equal 3*${dx}
variable           y2 equal ${Ly}-3*${dx}

region             rw1 block EDGE EDGE EDGE ${y1} EDGE EDGE units box
region             rw2 block EDGE EDGE ${y2} EDGE EDGE EDGE units box

group              gw1 region rw1
group              gw2 region rw2

mass               * ${sph_mass}

velocity           gw2 set ${vwall} 0 0

# fix force on wall particles
fix                fid1 gw2 setforce 0.0 0.0 0.0
fix                fid2 gw2 setforce 0.0 0.0 0.0


# do full time integration for all particles
fix                integrate_fix_full all meso

dump               dump_id all custom ${Nfreq} ${dname}/dump*.dat id type x y z vx vy vz
dump_modify        dump_id first yes sort id pad 8

dump               dump_dcd all dcd ${Nfreq} ${dname}/data.dcd
dump_modify        dump_dcd sort id

variable           sph_mu  equal ${sph_eta}/${sph_rho}
include            settimestep.lmp

neighbor           0     bin
neigh_modify       delay 0 every 1
communicate        single vel yes

set                group all meso_rho ${sph_rho}

pair_style         hybrid/overlay sph/rhosum 1  sph/taitwater/morris
pair_coeff         * * sph/taitwater/morris ${sph_rho} ${sph_c} ${sph_eta} ${h}
pair_coeff         * * sph/rhosum   ${h}

timestep           ${dt}

variable         rtransient equal round(0.5/${dt})
if "${ndim}==2" then "fix e2d all enforce2d"
run              ${rtransient}

# save velocity profile
compute vxav all reduce ave vx
variable  vx_cm atom vx-c_vxav
fix av_vx all ave/spatial 1 ${rtransient} ${rtransient} &
y center 0.05 v_vx_cm file ${dname}/vx.av ave one units reduced
run               ${rtransient}
