echo               both
dimension          2
units              si
atom_style         meso
boundary          p p p

# create simulation box
#2D box
variable          Lx equal 1.000e-3
region             box block 0.0000e-3 ${Lx}  0.0000e-3 ${Lx} -1.0e-6 1.0e-6 units box
#region             box block -0.050e-3 1.044e-3 -0.05e-3 1.044e-3 -0.05e-3 1.044e-3  units box
create_box         1 box

# create fluid particles
region             fluid block 0.0000e-3 1.000e-3 0.0000e-3 1.000e-3 EDGE EDGE side in units box 
lattice            sq 0.025e-3
create_atoms       1 region fluid

# create bottom, left, and right wall
#region             walls block 0.0001e-3 0.999e-3 0.0001e-3 0.999e-3 EDGE EDGE side out units box 
#region             driver block 0.0001e-3 0.999e-3  0.999e-3 EDGE EDGE EDGE side in units box
#lattice            sq2 0.025e-3
#create_atoms       2 region driver

# create a driver strip of particles, which exerts shear forces on the fluid
#region             driver block EDGE EDGE 0.999e-3 EDGE EDGE EDGE side in units box 
#create_atoms       3 region driver

group              fluid type 1 
#group              walls type 2 
#group              driver type 2
group              integrate_full union fluid 

mass               1 6.25E-7
#mass               2 2.0e-7
#mass               1 4.0e-7
set                group all meso_rho 1000.0

# use Tait's EOS in combination with Morris' laminar viscosity.
# We set rho_0 = 1000 kg/m^3, c = 0.1 m/s, h = 6.5e-5 m.
# The dynamic viscosity is set to 1.0e-3 Pa s, corresponding to a kinematic viscosity of 1.0e-6 m^2/s
#The temperature is set to 1e5C.
variable          h equal 6.5e-5
variable          soundspead equal 1e-2
variable          sdpd_temp equal 1.0
pair_style         hybrid/overlay sph/rhosum 1 sdpd
pair_coeff         * *    sph/rhosum   ${h}
pair_coeff         * *    sdpd 1000 ${soundspead} 1.0e-4 ${h} ${sdpd_temp}

compute            rho_peratom all meso_rho/atom
compute            e_peratom all meso_e/atom
compute            ke_peratom all ke/atom
compute            esph all reduce sum c_e_peratom
compute            ke all ke
compute            sdpd_kin all temp
variable           etot equal c_ke+c_esph



# assign a constant velocity to shear driver
#velocity           fluid set ${pfx}*ys  0.0  0.0 units box
#print $pfx

#std::cerr<<pxf<<'/n'
#fix                freeze_fix fluid setforce 0.0 0.0 0.0

# do full time integration for shear driver and fluid, but keep walls stationary
fix                integrate_fix_full integrate_full meso
#fix                integrate_fix_stationary walls meso/stationary
#fix               gfix fluid gravity -0.981 vector 1 0 0
#fix                ffix fluid addforce v_pfx 0 0
dump               dump_id all custom 100 dump*.dat id type x y vx vy c_rho_peratom c_e_peratom
dump_modify        dump_id first yes
dump_modify        dump_id sort id
dump_modify        dump_id pad 8
thermo             10
thermo_style       custom step  c_sdpd_kin
thermo_modify      norm no

neighbor           3.0e-6 bin
timestep           5.0e-4

run                40000
