clear
echo               both
variable           ndim string  3d
dimension          ${ndim}
units              si
atom_style   hybrid  bond meso
boundary          p p p


# create simulation box
#3D box
include            ${ndim}-vars.lmp
region             box block 0.0 ${Lx}  0.0 ${Ly} 0.0 ${Lz} units box
create_box         1 box

# create fluid particles
lattice            sc ${dx}
create_atoms       1 region box

mass               *  ${sdpd_mass}

#variable  sdpd_temp index 1.0e-5


timestep           0.0e-5

write_restart      poly3d.restart

