echo               both
log                ${dname}/log.lammps
shell              "mkdir -p" ${dname}/prints/
dimension          ${ndim}
units              si
atom_style         hybrid  bond meso
communicate        single vel yes
# create simulation box

#3D box
include            vars.lmp
# create fluid particles
include            ${ndim}d-lattice.lmp
#create_atoms       1 region box
variable            natoms equal ${nx}^${ndim}
if                  "${grid}==1" then &
    "create_atoms    1 box" &
else &
    "create_atoms        1 random ${natoms} 12345678 box"
mass               *  ${sdpd_mass}
#read_data          ${dname}/poly3d.txt

mass               * ${sdpd_mass}
set                group all meso_rho ${sdpd_rho}
variable           pVolume equal ${dx}^${ndim}
set                group all meso_e   ${pVolume}

pair_style         hybrid/overlay sdpd/rhosum 1 sdpd
pair_coeff         * * sdpd     ${h} ${ktype} ${sdpd_rho0} ${sdpd_c} ${sdpd_eta} ${sdpd_temp} ${sdpd_gamma} ${sdpd_background}
pair_coeff         * * sdpd/rhosum   ${h} ${ktype}

# ************************ 
variable           lambda       equal 1.0
variable           maxD         equal 2*PI*${Lx}/${lambda}
variable           A            atom   sin(2*PI*x/${Lx}/${lambda})
variable           dA           atom   2*PI/${Lx}/${lambda}*cos(2*PI*x/${Lx}/${lambda})
compute            sph_diff all meso_diff/atom ${h} ${ktype} v_A
variable           dAsphx           atom c_sph_diff[1]
variable           dA_err       atom abs(v_dA-v_dAsphx)/${maxD}
compute            cave         all reduce ave v_dA_err
# ***********************

compute            rho_peratom all meso_rho/atom
compute            ke all ke
compute            sdpd_kin all temp

fix                integrate_fix_full all meso

# "profile" corrected temperature
compute         pTemp all temp/profile 1 1 0 y 10
variable        nTemp equal c_pTemp*${kb}

compute            ie_atom all meso_e/atom
compute            ie all reduce sum c_ie_atom
dump               dump_id all custom ${Nfreq} ${dname}/dump*.dat id type x y z vx vy vz c_rho_peratom  v_dAsphx v_dA v_dA_err c_ie_atom
dump_modify        dump_id first yes
dump_modify        dump_id sort id
dump_modify        dump_id pad 8

thermo_style       custom step c_sdpd_kin v_nTemp c_cave
thermo_modify      norm no
thermo             100

neighbor           0.0 bin
neigh_modify       every 1 delay 1 check no


include            settimestep.lmp
timestep           ${dt}

restart 10000 ${dname}/sdpd.restart

if "${grid}==1" then &                
    "variable           nstep equal round(2.0/${dt})" &
else &
    "variable           nstep equal round(20.0/${dt})"

compute            cRDF  all rdf 50
fix                fRDF  all ave/time ${Nprint} 1 ${Nprint} c_cRDF file ${dname}/lrdf.dat mode vector ave running

variable           physical_time  equal dt*step
include            moments.lmp
if "${ndim}==2" then "fix e2d all enforce2d"

run                10000

velocity           all set 0 0 0
pair_coeff         * * sdpd     ${h} ${ktype} ${sdpd_rho0} ${sdpd_c} ${sdpd_eta} 0.0 ${sdpd_gamma} ${sdpd_background}
pair_coeff         * * sdpd/rhosum   ${h} ${ktype}

run                ${nstep}

