echo               both
log                ${dname}/log.lammps
dimension          ${ndim}
units              si
atom_style         hybrid  bond meso
communicate        single vel yes
# create simulation box

#3D box
include            vars.lmp
# create fluid particles
include            ${ndim}d-lattice.lmp
variable            natoms equal ${nx}^${ndim}
create_atoms        1 random ${natoms} 12345678 box
mass               *  ${sdpd_mass}
#read_data          ${dname}/poly3d.txt

mass               * ${sdpd_mass}
set                group all meso_rho ${sdpd_rho}

pair_style         hybrid/overlay sdpd/rhosum 1 sdpd
pair_coeff         * * sdpd    ${h} ${ktype} ${sdpd_rho0} ${sdpd_c} ${sdpd_eta} ${sdpd_temp} ${sdpd_gamma} ${sdpd_background}
pair_coeff         * * sdpd/rhosum   ${h} ${ktype}

#pair_style         hybrid/overlay sdpd/rhosum/spacedep 1 sdpd/spacedep
#pair_coeff         * * sdpd/spacedep     ${h} ${ktype} ${sdpd_rho0} ${sdpd_c} ${sdpd_eta} ${sdpd_temp} ${sdpd_gamma} ${sdpd_background}
#pair_coeff         * * sdpd/rhosum/spacedep   ${h} ${ktype}

compute            rho_peratom all meso_rho/atom
compute            ke all ke
compute            sdpd_kin all temp

fix                integrate_fix_full all meso

# "profile" corrected temperature
compute         pTemp all temp/profile 1 1 0 y 10
variable        nTemp equal c_pTemp*${kb}

dump               dump_id all custom ${Nfreq} ${dname}/dump*.dat id type x y z vx vy vz c_rho_peratom
dump_modify        dump_id first yes
dump_modify        dump_id sort id
dump_modify        dump_id pad 8

thermo_style       custom step c_sdpd_kin v_nTemp
thermo_modify      norm no
thermo             100

neighbor           0.0 bin
variable           eps delete
neigh_modify       every 1


include            settimestep.lmp
timestep           ${dt}

restart 10000 ${dname}/sdpd.restart

variable           ntprerun equal round(0.016/${dt})
run                ${ntprerun}

pair_style         hybrid/overlay sdpd/rhosum/spacedep 1 sdpd/spacedep
pair_coeff         * * sdpd/spacedep     ${h} ${ktype} ${sdpd_rho0} ${sdpd_c} ${sdpd_eta} ${sdpd_temp} ${sdpd_gamma} ${sdpd_background}
pair_coeff         * * sdpd/rhosum/spacedep   ${h} ${ktype}

compute            cRDF  all rdf 50
fix                fRDF  all ave/time 100 1 100 c_cRDF file ${dname}/lrdf.dat mode vector ave running

variable           nsteps equal round(0.16/${dt})
run                ${nsteps}


