echo               both
log                ${dname}/log.lammps
dimension          ${ndim}
units              si
atom_style         hybrid  bond meso
communicate        single vel yes
# create simulation box

#3D box
include            ${ndim}d-vars.lmp
# create fluid particles
include            ${ndim}d-lattice.lmp
create_atoms       1 region box
mass               *  ${sdpd_mass}
#read_data          ${dname}/poly3d.txt

mass               * ${sdpd_mass}
set                group all meso_rho ${sdpd_rho}

pair_style         hybrid/overlay sdpd/rhosum 1 sdpd
pair_coeff         * * sdpd/rhosum   ${h}
pair_coeff         * * sdpd     ${sdpd_rho0} ${sdpd_c} ${sdpd_eta} ${h} ${sdpd_temp} ${sdpd_gamma} ${sdpd_background}

compute            rho_peratom all meso_rho/atom
compute            ke all ke
compute            sdpd_kin all temp

fix                integrate_fix_full all meso

# "profile" corrected temperature
compute         pTemp all temp/profile 1 1 0 y 10
variable        nTemp equal c_pTemp*${kb}

dump               dump_id all custom ${Nfreq} ${dname}/dump*.dat id type x y z vx vy vz c_rho_peratom
dump_modify        dump_id first yes
dump_modify        dump_id sort id
dump_modify        dump_id pad 8

thermo_style       custom step c_sdpd_kin v_nTemp
thermo_modify      norm no
thermo             100

neighbor           0.0 bin
variable           eps delete
neigh_modify       every 1


include            settimestep.lmp
timestep           ${dt}

restart 10000 ${dname}/sdpd.restart

run     2000
compute            cRDF  all rdf 50
fix                fRDF  all ave/time 100 1 100 c_cRDF file ${dname}/lrdf.dat mode vector ave running
run     200000

