clear

echo               both
dimension          ${ndim}
units              si
atom_style   hybrid  bond meso
boundary          p p p


# create simulation box
include            ${ndim}-vars.lmp

# create fluid particles
include            ${ndim}-lattice.lmp
create_atoms       1 region box
mass               1  ${sdpd_mass}

write_restart      poly3d.restart

