echo               both
log                ${dname}/log.lammps
dimension          ${ndim}
units              si
atom_style         hybrid  bond meso
communicate        single vel yes
# create simulation box

#3D box
include            ${ndim}-vars.lmp
read_data           poly3d.txt
#read_restart         sdpd.restart.50000
special_bonds   lj 1 1 1
bond_style fene

mass               * ${sdpd_mass}
set                group all meso_rho ${sdpd_rho}

pair_style         hybrid/overlay sph/rhosum 1 sdpd
pair_coeff         * * sph/rhosum   ${h}
pair_coeff         * *    sdpd ${sdpd_rho0} ${sdpd_c} ${sdpd_eta} ${h} ${sdpd_temp} ${sdpd_background}

compute            rho_peratom all meso_rho/atom
compute            e_peratom all meso_e/atom
compute            ke_peratom all ke/atom
compute            esph all reduce sum c_e_peratom
compute            ke all ke
compute            sdpd_kin all temp
variable           etot equal c_ke+c_esph

fix                integrate_fix_full all meso

# "profile" corrected temperature
compute         pTemp all temp/profile 1 1 0 y 10

# average velocity

include   velocity.lmp
include            stress.lmp

dump               dump_id all custom ${Nfreq} ${dname}/dump*.dat id type x y z vx vy vz c_rho_peratom
dump_modify        dump_id first yes
dump_modify        dump_id sort id
dump_modify        dump_id pad 8

thermo_style       custom step c_sdpd_kin c_pTemp
thermo_modify      norm no
thermo             100

#include            ${ndim}-image.lmp

variable           eps equal 0.25*${dx}
neighbor           ${eps} bin
variable           eps delete
neigh_modify       every 1
include            settimestep.lmp
timestep           ${dt}

restart 10000 ${dname}/sdpd.restart


#include           fene.lmp
group                 polymer type 2
compute            rg            polymer gyration
variable           vrg equal c_rg
fix extra all print 1 "${vrg}" file ${dname}/rg.dat screen no


bond_coeff 1 ${H} ${r0}  0 0
dump               dump_xyz polymer xyz 100 ${dname}/poly3d.xyz
dump_modify        dump_xyz sort id


dump               dump_dcd polymer dcd 100 ${dname}/poly3d.dcd
dump_modify        dump_dcd unwrap yes sort id

run   10000000
