echo               both
dimension          3
units              si
atom_style         meso

# create simulation box
#3D box
variable           Ly  equal 1.803e-3
variable           Lx  equal ${Ly}/50*10
variable           Lz  equal ${Ly}/50*5

# create fluid particles
variable           dx   equal 2.5e-5
variable           sdpd_rho equal 1000
variable           sdpd_c equal 3e-1
variable           sdpd_mu equal 1e-6 # m^2/s
variable           sdpd_eta equal ${sdpd_mu}*${sdpd_rho}  # Pa.s
# smothing length
variable          h equal 2.7*${dx}
variable          gx equal 6.12
variable          Nfreq equal 1000
variable           sdpd_mass equal ${dx}*${dx}*${dx}*${sdpd_rho}

region             box block 0.0 ${Lx}  0.0 ${Ly} 0.0 ${Lz} units box
create_box         1 box
lattice            sc ${dx}
create_atoms       1 region box

mass               1 ${sdpd_mass}
set                group all meso_rho ${sdpd_rho}

# use Tait's EOS in combination with Morris' laminar viscosity.
# We set rho_0 = 1000 kg/m^3, c = 0.1 m/s, h = 6.5e-5 m.
# The dynamic viscosity is set to 1.0e-3 Pa s, corresponding to a kinematic viscosity of 1.0e-6 m^2/s
pair_style sph/taitwater/morris
pair_coeff * * ${sdpd_rho} ${sdpd_c} ${sdpd_eta} ${h}


#compute            sdpd_kin all temp
compute            rho_peratom all meso_rho/atom

# do full time integration for shear driver and fluid, but keep walls stationary
fix                integrate_fix_full all meso

variable bodyfx atom mass*${gx}*((y>${Ly}/2.0)-(y<${Ly}/2.0))
fix reverce_periodic all addforce v_bodyfx 0.0 0.0


# average velocity
compute vxav all reduce ave vx
variable  vx_cm atom vx-c_vxav
fix av_vx all ave/spatial 1 ${Nfreq} ${Nfreq} y center 0.01 v_vx_cm file vx.av ave running units reduced

dump               dump_id all custom 1000 dump*.dat id type x y z vx vz vy c_rho_peratom
dump_modify        dump_id first yes
dump_modify        dump_id sort id
dump_modify        dump_id pad 8

thermo_style       custom step 
thermo_modify      norm no
thermo             10

#variable           vkin equal c_sdpd_kin
#fix extra all print 10 "${vkin}" file "kin.dat.dt"

neighbor           3.0e-6 bin
neigh_modify       delay 0 every 1

include            settimestep.lmp
timestep           1e-7
run                400000
