log                ${dname}/init.lammps

echo               both
dimension          ${ndim}
units              si
atom_style   hybrid  bond meso

# create simulation box
include            ${ndim}-vars.lmp

# create fluid particles
include            ${ndim}-lattice.lmp
create_atoms       1 region box


mass               ${s_type}  ${solvent_mass}
mass               ${d_type}  ${solvent_mass}

write_restart      poly3d.restart

