echo               both
dimension          2
units              si
atom_style       hybrid bond meso
boundary          p p p

# create simulation box
#2D box
include            2d-vars.lmp
region             box block 0.0 ${Lx}  0.0 ${Ly} ${nLz} ${pLz} units box
read_data           poly2d.txt

# create fluid particles
lattice         sq ${dx}

special_bonds   lj 1 1 1
bond_style fene
bond_coeff 1 ${H} ${r0}  0 0


mass               1 ${sdpd_mass}
set                group all meso_rho ${sdpd_rho}


# use Tait's EOS in combination with Morris' laminar viscosity.
# We set rho_0 = 1000 kg/m^3, c = 0.1 m/s, h = 6.5e-5 m.
# The dynamic viscosity is set to 1.0e-3 Pa s, corresponding to a kinematic viscosity of 1.0e-6 m^2/s
#The temperature is set to 1e14.
pair_style         hybrid/overlay sph/rhosum 1 sdpd
#variable           sdpd_temp index 1e9
pair_coeff         * * sph/rhosum   ${h}
pair_coeff         * *    sdpd ${sdpd_rho} ${sdpd_c} ${sdpd_eta} ${h} ${sdpd_temp}

compute            rho_peratom all meso_rho/atom
#compute            e_peratom all meso_e/atom
#compute            ke_peratom all ke/atom
#compute            esph all reduce sum c_e_peratom
#compute            ke all ke
compute            sdpd_kin all temp
#variable           etot equal c_ke+c_esph


# do full time integration for shear driver and fluid, but keep walls stationary
fix                integrate_fix_full all meso
#variable            A_kol equal 5000
#variable            var_kol atom ${A_kol}*${sdpd_mass}*cos(2*PI*y/${Ly})
#fix                 kol_force all addforce v_var_kol 0.0 0.0

# "profile" corrected temperature
compute         pTemp all temp/profile 1 1 0 y 5

# average velocity
compute vxav all reduce ave vx
variable  vx_cm atom vx-c_vxav
fix av_vx all ave/spatial 1 ${Nfreq} ${Nfreq} &
y center 0.01 v_vx_cm file vx.av ave running units reduced


dump               dump_u all custom 10000 dump*.dat id type xu yu vx vy c_rho_peratom
dump_modify        dump_u first yes
dump_modify        dump_u sort id
dump_modify        dump_u pad 8
dump               dump_id all custom 10000 dump*.dat id type x y vx vy c_rho_peratom
dump_modify        dump_id first yes
dump_modify        dump_id sort id
dump_modify        dump_id pad 8

thermo             1000
thermo_style       custom step  c_sdpd_kin c_pTemp
thermo_modify      norm no

dump imgDump all image 1000 image.*.jpg type type atom yes bond type 5e-6 adiam 8e-6 view 0 0 zoom 1.75
dump_modify        imgDump pad 9
dump_modify         imgDump acolor '*' red/green

neighbor           1.0e-6 bin
neigh_modify       delay 0 every 1
include            settimestep.lmp
timestep           ${dt}
communicate        single vel yes

run                10000000
