clear

echo               both
dimension          ${ndim}
units              si
atom_style         hybrid  angle meso

# create simulation box
include            ${ndim}-vars.lmp

# create fluid particles
include            ${ndim}-lattice.lmp
create_atoms       1 region box

mass               1  ${solvent_mass}
mass               2  ${polymer_mass}
mass               3  ${polymer_mass}
mass               4  ${wall_mass}

write_restart      poly3d.restart

