echo               both
include           sph3d-vars.lmp

dimension          ${ndim}
units              si
atom_modify map array sort 0 0
atom_style         meso
boundary          p p p
communicate        single vel yes

read_data         sph3d.dat
pair_style         hybrid/overlay sdpd/rhosum 1 sdpd

variable           rho0 equal 1.0
variable              c equal 0.1
variable           eta  equal 1.0
variable           temp equal 0.0
variable           gamma equal 1.0
variable           rho_background equal 0.0
variable           ktype string wendland6
pair_coeff         * * sdpd     ${h} ${ktype} ${rho0} ${c} ${nu} ${temp} ${gamma} ${rho_background}
pair_coeff         * * sdpd/rhosum ${h} ${ktype}

# do full time integration
fix                integrate_fix_full all  meso

neighbor           0 bin
timestep           1e-19

variable           force_sdpd_fx equal fx[1]
variable           force_sdpd_fy equal fy[1]
compute            rho_peratom all meso_rho/atom
dump               dump_id all custom 1 dump*.dat id type x y vx vy c_rho_peratom
run                1

print              "f: ${force_sdpd_fx} ${force_sdpd_fy}"
