clear
echo               both
dimension          ${ndim}
units              si
atom_style   hybrid  bond meso
#atom_style       meso
boundary          p p p


# create simulation box
include            ${ndim}-vars.lmp

# create fluid particles
include            ${ndim}-lattice.lmp


create_atoms       1 region box

mass               *  ${sdpd_mass}


timestep           0.0e-5

write_restart      poly3d.restart

