echo               both
variable           ndim string  3d
dimension          ${ndim}
units              si
atom_style   hybrid  bond meso
boundary          p p p
# create simulation box

#3D box
include            ${ndim}-vars.lmp
region             box block 0.0 ${Lx}  0.0 ${Ly} 0.0 ${Lz} units box
read_data           poly3d.txt

special_bonds   lj 1 1 1
bond_style fene
bond_coeff 1 ${H} ${r0}  0 0


mass               1 ${sdpd_mass}
set                group all meso_rho ${sdpd_rho}


# use Tait's EOS in combination with Morris' laminar viscosity.
# We set rho_0 = 1000 kg/m^3, c = 0.1 m/s, h = 6.5e-5 m.
# The dynamic viscosity is set to 1.0e-3 Pa s, corresponding to a kinematic viscosity of 1.0e-6 m^2/s
pair_style         hybrid/overlay sph/rhosum 1 sdpd
variable           sdpd_temp index 1e9
pair_coeff         * * sph/rhosum   ${h}
pair_coeff         * *    sdpd ${sdpd_rho} ${sdpd_c} ${sdpd_eta} ${h} ${sdpd_temp}

compute            rho_peratom all meso_rho/atom
compute            e_peratom all meso_e/atom
compute            ke_peratom all ke/atom
compute            esph all reduce sum c_e_peratom
compute            ke all ke
compute            sdpd_kin all temp
variable           etot equal c_ke+c_esph



# do full time integration for shear driver and fluid, but keep walls stationary
fix                integrate_fix_full all meso

dump               dump_id all custom 1000 dump*.dat id type xu yu zu vx vy vz c_rho_peratom
dump_modify        dump_id first yes
dump_modify        dump_id sort id
dump_modify        dump_id pad 8

thermo_style       custom step c_sdpd_kin
thermo_modify      norm no
thermo             1

variable atomradius  equal ${dx}*0.25
dump imgDump all image 1000 image.*.jpg type type atom yes bond atom ${atomradius} adiam 1e-5 view 60 60 zoom 1.3  box yes 0.01
dump_modify        imgDump pad 9


neighbor           3.0e-6 bin
include            settimestep.lmp
timestep           ${dt}
run                1000000
